
;this file is automatically generated: Thu Jan 02 16:54:47 GMT 2020

;declarations generated

(declare-fun oclExcludes ( Int Int) Bool)
(declare-fun Cardinality ( Int) Int)
(declare-fun class15_Class15IntAttr4 ( Int) Int)
(declare-fun oclSelect ( Int Bool) Int)
(declare-fun Enum0 ( Int) Int)
(declare-fun Enum1 ( Int) Int)
(declare-fun Enum2 ( Int) Int)
(declare-fun container_ ( Int) Int)
(declare-fun obj_5f54e3e2_aeb3_4c6c_9cf8_fe10e3574327 ( Int) Int)
(declare-fun oclIncludes ( Int Int) Bool)
(declare-fun type_6a838c87_aa4b_432f_b14b_c0c59cd87116_Class15 ( Int) Bool)
(declare-fun ObjAt ( Int Int) Int)

;formula(s) generated
(assert (! (forall ((v Int)) (=> ( type_6a838c87_aa4b_432f_b14b_c0c59cd87116_Class15 v )  (< ( class15_Class15IntAttr4 ( obj_5f54e3e2_aeb3_4c6c_9cf8_fe10e3574327 v )  )  6))):named l0))
(assert (exists ((o Int)) ( type_6a838c87_aa4b_432f_b14b_c0c59cd87116_Class15 ( obj_5f54e3e2_aeb3_4c6c_9cf8_fe10e3574327 o )  ) ))

 ;end of formula 